0 17 20
1 5 20
2 23 23
3 14 22
4 18 19
5 16 17
6 17 17
7 14 16
8 12 15
9 10 12
10 14 14
11 14 14
12 9 15
13 13 13
14 5 12
15 9 11
16 7 9
17 9 9
18 3 8
19 7 9
20 4 9
21 7 8
22 4 7
23 3 5
24 4 4
25 1 5
26 1 4
27 3 3
28 2 2
29 1 1

